c Undirected Graph
p edge 17 39
e 7 17
e 6 4
e 7 5
e 1 6
e 2 6
e 3 6
e 1 7
e 2 7
e 3 7
e 4 7
e 1 8
e 2 8
e 1 9
e 2 9
e 4 9
e 1 10
e 2 10
e 5 10
e 1 11
e 2 11
e 4 11
e 1 12
e 2 12
e 3 12
e 6 12
e 1 13
e 2 13
e 4 13
e 6 13
e 1 14
e 2 14
e 3 14
e 7 14
e 1 15
e 2 15
e 4 15
e 7 15
e 3 16
e 4 17
